20
1 0 39
2 0 40
2 1 39
3 0 8
3 1 12
3 2 19
4 1 39
4 2 35
4 3 6
5 0 7
5 1 12
5 2 7
5 4 31
6 0 38
6 1 27
6 2 31
6 3 8
6 4 1
6 5 7
7 0 30
7 1 25
7 2 17
7 3 34
7 4 26
7 5 2
7 6 31
8 0 4
8 1 38
8 2 3
8 3 24
8 5 11
8 6 34
8 7 18
9 0 21
9 1 28
9 4 33
9 6 7
9 8 34
10 0 27
10 1 11
10 2 29
10 3 19
10 4 35
10 6 12
10 8 29
10 9 4
11 1 8
11 2 14
11 3 32
11 4 15
11 5 13
11 6 39
11 7 5
11 8 30
11 9 33
11 10 9
12 0 40
12 1 16
12 2 16
12 4 36
12 5 23
12 6 24
12 7 31
12 8 32
12 9 1
12 10 26
12 11 3
13 1 19
13 2 7
13 3 25
13 4 34
13 5 10
13 6 19
13 7 22
13 8 7
13 9 38
13 10 24
13 11 25
13 12 10
14 0 35
14 1 39
14 2 16
14 3 24
14 4 40
14 5 23
14 6 35
14 7 40
14 8 21
14 9 21
14 10 4
14 11 24
14 12 33
14 13 6
15 1 7
15 2 3
15 3 29
15 5 31
15 7 11
15 9 14
15 11 22
15 12 1
15 13 6
16 0 30
16 1 27
16 2 34
16 4 37
16 5 4
16 6 31
16 7 33
16 8 26
16 9 9
16 11 9
16 12 33
16 14 23
16 15 33
17 0 38
17 1 37
17 2 28
17 3 28
17 4 15
17 5 26
17 7 20
17 8 32
17 10 26
17 11 23
17 12 15
17 13 35
17 14 15
17 15 15
17 16 5
18 0 31
18 1 17
18 2 14
18 3 40
18 4 17
18 5 28
18 6 18
18 7 34
18 8 15
18 9 1
18 10 40
18 11 37
18 12 36
18 13 23
18 14 17
18 15 28
18 17 11
19 0 39
19 1 24
19 2 27
19 3 20
19 4 39
19 5 32
19 6 38
19 7 8
19 8 40
19 9 3
19 10 7
19 11 3
19 12 33
19 14 6
19 15 22
19 16 24
19 17 32
19 18 26
